NAME: CMT5_7
TYPE: CVRP
COMMENT: 1291.29 - Cluster Nr.7
DIMENSION: 14
CAPACITY: 200
EDGE_WEIGHT_TYPE: EUC_2D
NODE_COORD_TYPE: TWOD_COORDS
NODE_COORD_SECTION: 
11 38 46
2 35 40
4 31 32
6 41 37
3 35 51
7 42 41
12 35 35
14 32 39
9 41 46
10 33 34
1 30 48
8 27 43
13 33 44
5 37 47
DEPOT_SECTION: 
12
-1
DEMAND_SECTION: 
2 16
5 6
8 9
4 29
3 16
9 18
6 16
13 20
1 15
10 19
11 12
14 5
7 19
12 0
EOF
